
Gurobi 11.0.3 (linux64) logging started Mon 18 Nov 2024 10:37:02 PM CST

Set parameter LogFile to value "/home/dlcole3/graph_abstraction/hierarchical_graphs/git_storage/CS1/HP_low_reserves/gurobi_logs/serial/logfile_ST18_6.log"

Gurobi 11.0.3 (linux64) logging started Mon 18 Nov 2024 10:53:48 PM CST

Set parameter LogFile to value "/home/dlcole3/graph_abstraction/hierarchical_graphs/git_storage/CS1/HP_low_reserves/gurobi_logs/serial/logfile_ST18_6.log"
Gurobi Optimizer version 11.0.3 build v11.0.3rc0 (linux64 - "Ubuntu 18.04.3 LTS")

CPU model: Intel(R) Xeon(R) CPU E5-2698 v4 @ 2.20GHz, instruction set [SSE2|AVX|AVX2]
Thread count: 40 physical cores, 80 logical processors, using up to 20 threads

Optimize a model with 29168 rows, 50688 columns and 136175 nonzeros
Model fingerprint: 0x540bb9d8
Variable types: 46944 continuous, 3744 integer (3744 binary)
Coefficient statistics:
  Matrix range     [6e-01, 2e+04]
  Objective range  [2e+00, 2e+04]
  Bounds range     [5e-02, 2e+05]
  RHS range        [3e-02, 7e+03]
Presolve removed 14020 rows and 38482 columns
Presolve time: 0.34s
Presolved: 15148 rows, 12206 columns, 64826 nonzeros
Variable types: 9150 continuous, 3056 integer (3056 binary)
Found heuristic solution: objective 191692.10247

Root relaxation: objective 6.449692e+04, 7845 iterations, 0.30 seconds (0.22 work units)

    Nodes    |    Current Node    |     Objective Bounds      |     Work
 Expl Unexpl |  Obj  Depth IntInf | Incumbent    BestBd   Gap | It/Node Time

     0     0 64496.9179    0    5 191692.102 64496.9179  66.4%     -    1s
H    0     0                    191435.70746 64496.9179  66.3%     -    1s
H    0     0                    91287.258175 64496.9179  29.3%     -    1s
H    0     0                    64727.321797 64496.9179  0.36%     -    1s
     0     0 64496.9179    0    5 64727.3218 64496.9179  0.36%     -    1s
     0     0 64496.9179    0    1 64727.3218 64496.9179  0.36%     -    1s
     0     0 64496.9179    0    2 64727.3218 64496.9179  0.36%     -    2s

Cutting planes:
  Gomory: 2

Explored 1 nodes (13162 simplex iterations) in 2.22 seconds (1.38 work units)
Thread count was 20 (of 80 available processors)

Solution count 4: 64727.3 91287.3 191436 191692 

Optimal solution found (tolerance 3.00e-03)
Best objective 6.472732179722e+04, best bound 6.457766041431e+04, gap 0.2312%

User-callback calls 1339, time in user-callback 0.00 sec
